NAME : rbg021.5.tw.4515.tour
COMMENT : Length = 4515
COMMENT : Found by LKH [Keld Helsgaun] Thu Jan 16 16:40:34 2020
TYPE : TOUR
DIMENSION : 20
TOUR_SECTION
1
2
3
4
5
12
13
11
10
7
9
15
16
17
18
20
19
14
8
6
-1
EOF
